%nprocshared=16
%mem=72GB
# B3LYP/def2tzvp opt freq

Diene_crest_conf_1

0 1
 C  -1.16590000  -0.29530000  -0.00010000
 C  -0.72250000   0.96820000   0.00000000
 C   0.72550000   0.96610000   0.00000000
 C   1.16500000  -0.29880000  -0.00000000
 C  -0.00190000  -1.23030000   0.00010000
 H  -2.18650000  -0.63160000  -0.00010000
 H  -1.32010000   1.86250000   0.00030000
 H   1.32580000   1.85840000  -0.00020000
 H   2.18450000  -0.63820000  -0.00010000
 H  -0.00270000  -1.88040000  -0.87770000
 H  -0.00290000  -1.88040000   0.87790000

