%nprocshared=16
%mem=72GB
# B3LYP/def2tzvp opt freq

Do1_crest_conf_1

0 1
 C  -0.47770000   0.64840000   0.00000000
 C  -0.47790000  -0.64830000  -0.00000000
 C   0.87500000  -0.00010000   0.00000000
 H  -0.99050000   1.57780000  -0.00010000
 H  -0.99070000  -1.57780000   0.00010000
 H   1.47090000  -0.00010000   0.90680000
 H   1.47090000  -0.00020000  -0.90690000

