%nprocshared=16
%mem=72GB
# B3LYP/def2tzvp opt freq

P1_crest_conf_1

0 1
 C   1.05260000  -0.40510000   0.75240000
 C  -0.44560000  -0.32410000   1.11660000
 C  -0.97840000   1.01150000   0.66370000
 C  -0.97850000   1.01130000  -0.66410000
 C  -0.44570000  -0.32450000  -1.11640000
 C  -1.02560000  -1.21430000   0.00030000
 C   1.05250000  -0.40560000  -0.75220000
 C   1.70170000   0.71610000  -0.00030000
 H   1.65940000  -1.07180000   1.34640000
 H  -0.66670000  -0.60460000   2.14350000
 H  -1.24440000   1.81180000   1.33030000
 H  -1.24450000   1.81130000  -1.33090000
 H  -0.66700000  -0.60540000  -2.14330000
 H  -2.11510000  -1.25080000   0.00030000
 H  -0.62270000  -2.22640000   0.00040000
 H   1.65910000  -1.07280000  -1.34570000
 H   1.25910000   1.69890000  -0.00060000
 H   2.78300000   0.73140000  -0.00010000

