%nprocshared=16
%mem=72GB
# B3LYP/def2tzvp opt=(ts,calcfc,noeigen) freq

TS3_crest_conf_1

0 1
 C  -1.42060000   1.15180000   0.07720000
 C  -1.13000000   0.71020000  -1.17460000
 C  -1.13030000  -0.71100000  -1.17400000
 C  -1.42110000  -1.15150000   0.07810000
 C  -1.95260000   0.00060000   0.87090000
 C   0.68080000  -0.67430000   1.02100000
 C   0.68090000   0.67450000   1.02070000
 C   1.67880000   1.21910000   0.03680000
 C   2.05880000  -0.00020000  -0.81540000
 C   1.67850000  -1.21920000   0.03700000
 H  -1.55510000   2.17820000   0.37080000
 H  -0.84320000   1.31950000  -2.01360000
 H  -0.84380000  -1.32120000  -2.01250000
 H  -1.55600000  -2.17760000   0.37260000
 H  -1.71770000   0.00090000   1.93090000
 H  -3.04630000   0.00070000   0.77890000
 H   0.29720000  -1.30450000   1.80350000
 H   0.29730000   1.30510000   1.80300000
 H   1.28950000   2.04120000  -0.56340000
 H   2.54660000   1.59690000   0.58830000
 H   3.11490000  -0.00020000  -1.08200000
 H   1.47930000  -0.00010000  -1.73700000
 H   2.54630000  -1.59730000   0.58840000
 H   1.28890000  -2.04130000  -0.56310000

