%nprocshared=8
%mem=24GB
# wb97xd/6-31+G* opt freq

Bu_rdkit_conf_2

0 1
 C  -1.54170000   0.50320000   0.26900000
 C  -0.67210000  -0.27320000  -0.70780000
 C   0.62500000  -0.79320000  -0.08740000
 C   1.57780000   0.31270000   0.33950000
 H  -1.05740000   1.43100000   0.58720000
 H  -1.76390000  -0.09480000   1.15840000
 H  -2.49160000   0.77100000  -0.20500000
 H  -0.44430000   0.35850000  -1.57430000
 H  -1.24640000  -1.12910000  -1.08190000
 H   1.13350000  -1.42660000  -0.82400000
 H   0.39690000  -1.43050000   0.77490000
 H   2.52040000  -0.11880000   0.69130000
 H   1.80310000   0.98200000  -0.49680000
 H   1.16070000   0.90800000   1.15710000

