%nprocshared=8
%mem=24GB
# wb97xd/6-31+G* opt freq

Bu_rdkit_conf_1

0 1
 C  -1.88530000   0.28570000   0.23450000
 C  -0.62170000  -0.42470000  -0.22390000
 C   0.62170000   0.42470000   0.03100000
 C   1.88530000  -0.28570000  -0.42740000
 H  -2.01920000   1.23180000  -0.29980000
 H  -2.76270000  -0.33980000   0.04270000
 H  -1.84810000   0.49900000   1.30760000
 H  -0.70470000  -0.65230000  -1.29310000
 H  -0.53460000  -1.38090000   0.30520000
 H   0.53460000   1.38090000  -0.49810000
 H   0.70470000   0.65230000   1.10020000
 H   2.01920000  -1.23180000   0.10690000
 H   1.84810000  -0.49900000  -1.50040000
 H   2.76270000   0.33980000  -0.23560000

