%nprocshared=8
%mem=24GB
# wb97xd/6-31+G* opt freq

Et_rdkit_conf_1

0 1
 C   0.75480000   0.03800000   0.01920000
 C  -0.75480000  -0.03800000  -0.01920000
 H   1.11500000   0.85090000  -0.61830000
 H   1.10470000   0.21980000   1.03980000
 H   1.19600000  -0.89860000  -0.33460000
 H  -1.11500000  -0.85090000   0.61830000
 H  -1.10470000  -0.21980000  -1.03980000
 H  -1.19600000   0.89860000   0.33460000

