%nprocshared=8
%mem=24GB
# wb97xd/6-31+G* opt freq

Me_rdkit_conf_1

0 1
 C   0.00000000  -0.00000000   0.00000000
 H  -0.41490000  -0.63960000  -0.78210000
 H   0.11460000   1.01620000  -0.38350000
 H  -0.67450000   0.00890000   0.85900000
 H   0.97480000  -0.38560000   0.30650000

