%nprocshared=8
%mem=24GB
# wb97xd/6-31+G* opt freq

Pent_rdkit_conf_3

0 1
 C  -1.88550000   0.53150000  -0.32260000
 C  -0.94520000  -0.59940000  -0.70860000
 C   0.01010000  -1.01070000   0.41430000
 C   0.95030000   0.08670000   0.91880000
 C   1.87380000   0.63730000  -0.15660000
 H  -2.44470000   0.28530000   0.58550000
 H  -1.34120000   1.46510000  -0.15250000
 H  -2.60690000   0.71080000  -1.12630000
 H  -0.38210000  -0.31780000  -1.60510000
 H  -1.54750000  -1.47350000  -0.98470000
 H  -0.57840000  -1.37990000   1.26360000
 H   0.61080000  -1.85960000   0.06450000
 H   1.56550000  -0.33160000   1.72470000
 H   0.37620000   0.90680000   1.36360000
 H   2.44350000  -0.16590000  -0.63450000
 H   1.31480000   1.17330000  -0.92910000
 H   2.58640000   1.34140000   0.28500000

