# opt freq=noraman b3lyp/3-21g

CH4

0 2
 C                  0.00000000    0.00000000   -1.97423000
 H                  0.00000000    1.03095900   -2.33872900
 H                 -0.89283700   -0.51548000   -2.33872900
 H                  0.89283700   -0.51548000   -2.33872900
 Hg                 0.00000000    0.00000000    0.23577000

