# opt freq=noraman b3lyp/3-21g

CH4

0 1
 C                  0.00000000    0.00000000    0.00000000
 H                  0.63133100    0.63133100    0.63133100
 H                 -0.63133100   -0.63133100    0.63133100
 H                 -0.63133100    0.63133100   -0.63133100
 H                  0.63133100   -0.63133100   -0.63133100

