%nprocshared=12
%mem=24GB
# B3LYP/6-31+G(d,p) opt freq

Strychnine_rdkit_conf_1

0 1
 C  -1.19410000  -1.74930000  -1.28760000
 C   0.03570000  -2.63410000  -1.18910000
 N   0.34140000  -2.72360000   0.24620000
 C   1.78250000  -2.68920000   0.51760000
 C   2.32630000  -1.27930000   0.49990000
 C   3.38600000  -0.92720000  -0.24870000
 C   3.87630000   0.47550000  -0.36650000
 O   2.88660000   1.22990000  -1.05220000
 C   1.92150000   1.87230000  -0.20740000
 C   1.15680000   2.85190000  -1.13420000
 C  -0.36530000   2.82870000  -1.03760000
 O  -1.00950000   3.86510000  -1.18840000
 N  -0.90490000   1.58040000  -0.78630000
 C  -0.04830000   0.40990000  -0.54090000
 C   0.96570000   0.89070000   0.50660000
 C   1.56090000  -0.26330000   1.32500000
 C   0.37870000  -0.95320000   2.02360000
 C  -0.44540000  -1.68750000   0.96680000
 C  -1.00000000  -0.75960000  -0.13180000
 C  -2.28280000  -0.01400000   0.13650000
 C  -3.45950000  -0.49610000   0.69590000
 C  -4.55080000   0.36770000   0.80660000
 C  -4.46000000   1.69220000   0.35640000
 C  -3.27550000   2.17280000  -0.20750000
 C  -2.19840000   1.30990000  -0.31260000
 H  -1.27640000  -1.26570000  -2.26730000
 H  -2.09710000  -2.35720000  -1.14280000
 H   0.85330000  -2.18170000  -1.76340000
 H  -0.15260000  -3.62730000  -1.60910000
 H   2.31500000  -3.34000000  -0.18780000
 H   1.97030000  -3.12830000   1.50580000
 H   3.90190000  -1.67090000  -0.85060000
 H   4.77950000   0.48280000  -0.98570000
 H   4.14400000   0.91610000   0.60040000
 H   2.46540000   2.46000000   0.54360000
 H   1.48120000   3.87140000  -0.88970000
 H   1.41370000   2.68680000  -2.18820000
 H   0.46580000   0.17720000  -1.48290000
 H   0.43020000   1.51300000   1.24360000
 H   2.22330000   0.14210000   2.10070000
 H   0.73680000  -1.65360000   2.78940000
 H  -0.24530000  -0.22360000   2.55480000
 H  -1.26620000  -2.21070000   1.47260000
 H  -3.54650000  -1.52550000   1.02990000
 H  -5.48270000   0.01000000   1.23840000
 H  -5.31860000   2.35360000   0.44600000
 H  -3.21890000   3.20120000  -0.54820000

