%mem=72GB
%nprocshared=36
# wb97xd/genecp scf=qc

Ir_cat_076 conformer 9

1 1
 C                  0.96965200    0.35757800    2.90356500
 C                  2.41691800    0.76361500    2.63941300
 C                  2.62988200    2.27530300    2.50899200
 C                  1.98226800    2.91834800    1.27880400
 C                  2.32284800    4.40836200    1.16081200
 C                  1.76387000    5.09921800   -0.08845800
 C                  0.25294100    5.34115300   -0.04007600
 C                 -0.34770100    5.90633500   -1.33287800
 C                 -0.24545700    4.96680900   -2.55808800
 C                 -0.78208300    3.60201300   -2.23172000
 C                 -2.19097200    3.41065700   -2.04142200
 C                 -2.63948500    2.22302700   -1.54029300
 C                  0.05440800    2.55151300   -1.96456400
 C                 -0.43426000    1.33817200   -1.41568100
 N                 -1.80449400    1.20599600   -1.20672500
 Ir                -2.30766100   -0.51538500   -0.17524900
 N                 -0.27344800   -0.73945300   -0.27817500
 C                  0.43622100   -1.79162200    0.18414400
 C                  1.78235400   -1.93440500   -0.03871500
 C                  2.47505100   -0.95374100   -0.80092100
 C                  3.94624300   -1.10226800   -1.08320300
 C                  4.82390800   -0.60228800    0.07689300
 C                  6.32717500   -0.71757100   -0.19211500
 C                  6.84198800   -2.15583700   -0.29643500
 C                  8.34782900   -2.25567100   -0.56362400
 C                  9.22508500   -1.70883800    0.56551000
 C                 10.72074900   -1.98918900    0.37615600
 C                 11.32748900   -1.42985400   -0.91735100
 C                 11.15089200    0.08027100   -1.08135500
 C                  1.76075900    0.13049200   -1.24675200
 C                  0.37241300    0.26172600   -0.98157700
 C                 -2.68168600   -1.78731800   -1.62391200
 C                 -4.05949600   -1.93539700   -1.94525000
 C                 -4.51384600   -2.79070300   -2.93551900
 C                 -3.57370600   -3.53403900   -3.64886800
 C                 -2.20730000   -3.41400800   -3.37369000
 C                 -1.76777200   -2.55380700   -2.37842400
 N                 -4.36692300   -0.33036800   -0.26079100
 C                 -5.34544100    0.30926800    0.37044800
 C                 -6.58572700   -0.08998300   -0.15353200
 C                 -6.28789200   -1.01508500   -1.13254600
 N                 -4.94035100   -1.14158700   -1.17492800
 N                 -2.15077300    0.82355000    1.57488000
 C                 -2.02662900    2.12461700    1.82791800
 C                 -2.12272700    2.35192300    3.20759000
 C                 -2.31273100    1.10262800    3.76706500
 N                 -2.32437100    0.20629100    2.75697200
 C                 -2.48647100   -1.20509800    2.71905000
 C                 -2.52513200   -1.78214000    1.44326500
 C                 -2.69221700   -3.17012700    1.37952700
 C                 -2.80907200   -3.93554400    2.53981600
 C                 -2.75471100   -3.32903000    3.79206500
 C                 -2.59089700   -1.95125800    3.88814200
 H                  0.87917100   -0.72498300    3.04249100
 H                  0.32712700    0.63437700    2.06396300
 H                  0.58388900    0.84880300    3.80405600
 H                  2.76069300    0.27144100    1.72378800
 H                  3.05200200    0.38822900    3.45055000
 H                  3.70894700    2.47509000    2.47494500
 H                  2.25784200    2.77408600    3.41534300
 H                  0.89381200    2.77632600    1.30812500
 H                  2.33144700    2.39437300    0.37723700
 H                  3.41520300    4.51173600    1.16216300
 H                  1.96803600    4.93499200    2.05795600
 H                  2.02546200    4.49526600   -0.96685100
 H                  2.26658600    6.06472400   -0.22609200
 H                  0.03730200    6.03919900    0.77855900
 H                 -0.26058200    4.40504800    0.21383200
 H                 -1.40480700    6.13993600   -1.15724100
 H                  0.14085600    6.85457200   -1.58639600
 H                  0.79545300    4.88515900   -2.88546800
 H                 -0.80753000    5.40794400   -3.38894100
 H                 -2.89683100    4.19799400   -2.28051600
 H                 -3.69556300    2.03964400   -1.37076000
 H                  1.12413700    2.67662900   -2.08702400
 H                 -0.12520800   -2.53265000    0.74101800
 H                  2.30005000   -2.80134600    0.35627100
 H                  4.20407500   -0.54505400   -1.99137800
 H                  4.16173000   -2.15715000   -1.28458500
 H                  4.57194400    0.44709000    0.27479400
 H                  4.57215000   -1.15794200    0.99016100
 H                  6.85431200   -0.20124200    0.61781800
 H                  6.57591700   -0.17500600   -1.11546800
 H                  6.60061400   -2.69147400    0.63311400
 H                  6.31400300   -2.68029200   -1.10252100
 H                  8.60757000   -3.30883300   -0.73354900
 H                  8.57609900   -1.73024600   -1.50072100
 H                  9.07057500   -0.62808100    0.67151500
 H                  8.90164800   -2.15601900    1.51528900
 H                 10.88673700   -3.07413400    0.40445300
 H                 11.26601200   -1.57134300    1.23245100
 H                 12.39678200   -1.67091100   -0.92846200
 H                 10.89497600   -1.94440100   -1.78446700
 H                 10.09616400    0.35480900   -1.19410200
 H                 11.54244100    0.61863800   -0.21058900
 H                 11.68131700    0.44475800   -1.96613900
 H                  2.25709000    0.89043500   -1.84063200
 H                 -5.56971000   -2.88805500   -3.16372000
 H                 -3.91248800   -4.20847700   -4.42802100
 H                 -1.49085900   -3.99509600   -3.94427700
 H                 -0.70598600   -2.46467500   -2.17513800
 H                 -5.11115100    1.01177200    1.15697500
 H                 -7.56479400    0.24922100    0.14473200
 H                 -6.93028900   -1.58092400   -1.78890300
 H                 -1.86968000    2.82126400    1.01691100
 H                 -2.05291800    3.29449700    3.72684300
 H                 -2.43239300    0.80059700    4.79555900
 H                 -2.72713700   -3.66426300    0.41369400
 H                 -2.93906100   -5.01020200    2.46194900
 H                 -2.83639200   -3.92402800    4.69499500
 H                 -2.53956200   -1.47743200    4.86273300

