%mem=72GB
%nprocshared=36
# opt=maxcycles=100 uwb97xd/genecp scf=qc

Ir_cat_116 conformer 100

0 3
 F                 -6.32390600   -3.09571100   -1.39379300
 C                 -5.17354800   -3.79020000   -1.25779100
 C                 -4.24452300   -3.12279400   -0.27745300
 C                 -4.68170000   -2.93723900    1.03166400
 C                 -3.86690600   -2.31863800    1.97075100
 C                 -4.44420400   -2.24127100    3.36777100
 F                 -5.57195500   -2.95654800    3.49652800
 F                 -4.76790100   -0.97217600    3.72246800
 F                 -3.59094700   -2.70890800    4.30095800
 C                 -2.97499500   -2.72363100   -0.64694500
 C                 -2.13137200   -2.09972400    0.27851200
 C                 -2.58201800   -1.84764300    1.59601500
 C                 -1.59352500   -1.11897700    2.44272700
 C                 -1.79173500   -0.54634000    3.70030200
 C                 -0.74292500    0.08462100    4.35690200
 C                  0.50795600    0.14922200    3.75805500
 C                  0.64329100   -0.38798200    2.49025000
 N                 -0.37447900   -0.98193000    1.85413000
 Ir                -0.27517600   -1.50102400   -0.14750300
 C                  0.46898500   -3.27809500    0.05161000
 C                  0.43157700   -4.08572400   -1.19358500
 C                  0.71205800   -5.50255800   -1.03549400
 C                  0.40318500   -6.53373000   -2.07949300
 F                  1.30562900   -6.55597100   -3.10057200
 F                  0.39771100   -7.78438200   -1.58004800
 F                 -0.80622600   -6.34020000   -2.64814100
 C                  1.25592300   -5.95595500    0.14223300
 C                  1.48038100   -5.11592300    1.26115400
 C                  2.09307300   -5.70145400    2.48570000
 F                  2.24361300   -4.79310000    3.47079100
 F                  3.32027400   -6.22698100    2.24574800
 F                  1.35896800   -6.71897400    3.00210700
 C                  1.01856200   -3.80400800    1.21880800
 N                 -0.27979700   -2.03939300   -2.10550400
 C                 -0.61873900   -1.21151900   -3.10089600
 C                 -0.59541900   -1.59808700   -4.42680300
 C                 -0.17680400   -2.91147100   -4.72826500
 C                  0.16986500   -3.77280000   -3.71913900
 C                  0.11224700   -3.35524000   -2.35704200
 O                 -0.99774700    0.51222200   -0.50018600
 C                 -0.33280400    1.59367800   -0.41376400
 C                 -1.16404100    2.83101900   -0.31895600
 C                 -0.71046700    4.08631100   -0.73467000
 C                 -1.53061000    5.20298800   -0.62655600
 C                 -2.81965700    5.09899300   -0.08978700
 C                 -3.67053600    6.30495600    0.04434800
 C                 -5.03308500    6.31140100   -0.25775000
 O                 -5.73872200    5.23095900   -0.71478100
 C                 -7.02272000    5.66427400   -0.90754300
 C                 -7.16487800    7.01788600   -0.58148900
 C                 -8.41389200    7.62619400   -0.71924000
 C                 -9.47772700    6.85667000   -1.17792100
 C                 -9.30486100    5.50075300   -1.49667900
 C                 -8.06720700    4.87643600   -1.36645300
 C                 -5.84591100    7.44814800   -0.15258000
 C                 -5.29568800    8.65327200    0.28304400
 C                 -3.94158000    8.67951200    0.59728200
 C                 -3.15140100    7.53014300    0.47840400
 C                 -3.27383100    3.83786000    0.31752000
 C                 -2.45980600    2.72046800    0.19741700
 C                  1.06905700    1.69145500   -0.39341100
 C                  1.97014900    0.61659900   -0.51720500
 C                  3.43792900    0.88756500   -0.59036600
 C                  4.32134500   -0.13052500   -0.21598700
 C                  5.69349300    0.07719100   -0.24943000
 C                  6.22409900    1.30053600   -0.67769300
 C                  7.69167700    1.49714300   -0.73806300
 C                  8.31954800    2.67503600   -0.33089900
 O                  7.67449700    3.77283400    0.17488100
 C                  8.64849900    4.68841500    0.46894000
 C                  9.92422900    4.20194700    0.16095500
 C                 11.03875600    5.00827300    0.39810700
 C                 10.83716200    6.27535600    0.93517500
 C                  9.54585300    6.73658100    1.23393600
 C                  8.42201300    5.94692900    1.00485600
 C                  9.70705900    2.86696100   -0.36728500
 C                 10.53395800    1.84775700   -0.83882700
 C                  9.93924100    0.66295400   -1.25746200
 C                  8.55044900    0.49569100   -1.20570700
 C                  5.33815400    2.31320100   -1.06588700
 C                  3.96495600    2.10945000   -1.02194700
 O                  1.65925400   -0.61619600   -0.52640400
 F                 -4.63298300   -3.90755000   -2.48017900
 F                 -5.56696592   -5.20418005   -0.79144054
 H                 -5.66146600   -3.29282800    1.32368600
 H                 -2.62748500   -2.90406600   -1.65737400
 H                 -2.75711800   -0.56996600    4.17463400
 H                 -0.91148300    0.52167100    5.33539500
 H                  1.35560500    0.61997700    4.24068700
 H                  1.57960000   -0.34949200    1.94570800
 H                  1.49178800   -7.01096900    0.23502000
 H                  1.06732100   -3.19132300    2.11177200
 H                 -0.92338600   -0.21621800   -2.79467300
 H                 -0.88335300   -0.89661300   -5.19978000
 H                 -0.12015500   -3.24337000   -5.75967700
 H                  0.51358600   -4.76533500   -3.96309200
 H                  0.27254400    4.19399400   -1.18188200
 H                 -1.17666900    6.16386600   -0.98790300
 H                 -8.55221900    8.67454600   -0.47406700
 H                -10.45746300    7.30887300   -1.29237100
 H                -10.15321000    4.92520700   -1.85293500
 H                 -7.91979200    3.83066000   -1.61069900
 H                 -5.90745800    9.54502000    0.37399400
 H                 -3.48635000    9.60055500    0.94639200
 H                 -2.10138000    7.57998700    0.75114300
 H                 -4.27030400    3.73385700    0.73263400
 H                 -2.81818200    1.74411900    0.50620600
 H                  1.49223700    2.67658900   -0.25919400
 H                  3.91665600   -1.08505300    0.10380500
 H                  6.36276900   -0.71407800    0.07479000
 H                 12.03933000    4.65536700    0.16887500
 H                 11.68939500    6.91885900    1.12759700
 H                  9.41897000    7.72953500    1.65334800
 H                  7.41955300    6.29058000    1.23309900
 H                 11.61084200    1.97627500   -0.87773800
 H                 10.55520500   -0.14582000   -1.63653800
 H                  8.11676000   -0.43500500   -1.55913900
 H                  5.72808100    3.26225100   -1.41719800
 H                  3.30540500    2.90259000   -1.35868700

