%nprocshared=24
%mem=24GB
# B3LYP/6-31+G(d,p) opt freq

Strychnine_rdkit_conf_2

0 1
 C   0.93480000  -1.19020000   1.92790000
 C  -0.36520000  -1.94960000   2.13620000
 N  -0.68880000  -2.57020000   0.84290000
 C  -2.11250000  -2.43270000   0.48870000
 C  -2.40530000  -1.07470000  -0.11820000
 C  -3.26640000  -0.21650000   0.46360000
 C  -3.57160000   1.21150000   0.11320000
 O  -2.97940000   1.68560000  -1.08360000
 C  -1.56780000   1.88840000  -1.11520000
 C  -1.03250000   2.97540000  -0.15640000
 C   0.49300000   2.92070000  -0.05870000
 O   1.18240000   3.92700000  -0.18620000
 N   0.96050000   1.63710000   0.18360000
 C   0.02820000   0.51250000   0.25090000
 C  -0.76700000   0.57580000  -1.06290000
 C  -1.53170000  -0.72020000  -1.30850000
 C  -0.44940000  -1.79690000  -1.51630000
 C   0.25660000  -2.04350000  -0.18190000
 C   0.87720000  -0.77700000   0.45150000
 C   2.23000000  -0.27430000   0.00800000
 C   3.37860000  -1.00420000  -0.25990000
 C   4.54370000  -0.31020000  -0.59550000
 C   4.55250000   1.09270000  -0.65430000
 C   3.39490000   1.82660000  -0.38420000
 C   2.24670000   1.13150000  -0.05500000
 H   1.02720000  -0.34160000   2.61490000
 H   1.78420000  -1.86070000   2.11520000
 H  -0.25660000  -2.71310000   2.91320000
 H  -1.14070000  -1.25060000   2.47160000
 H  -2.73910000  -2.63400000   1.36700000
 H  -2.38380000  -3.21320000  -0.23350000
 H  -3.80960000  -0.55940000   1.34420000
 H  -4.65530000   1.29050000  -0.02840000
 H  -3.32360000   1.86590000   0.95370000
 H  -1.39870000   2.28700000  -2.12570000
 H  -1.43960000   2.88420000   0.85520000
 H  -1.33740000   3.96310000  -0.52100000
 H  -0.62960000   0.68410000   1.11210000
 H  -0.03610000   0.66950000  -1.88410000
 H  -2.13980000  -0.65410000  -2.21830000
 H   0.27690000  -1.48580000  -2.27770000
 H  -0.89540000  -2.72540000  -1.89600000
 H   1.02950000  -2.80780000  -0.33020000
 H   3.38900000  -2.08790000  -0.19730000
 H   5.45810000  -0.86040000  -0.80670000
 H   5.46990000   1.61530000  -0.91580000
 H   3.40900000   2.90980000  -0.44220000

