%nprocshared=12
%mem=24GB
# freq=noraman def2tzvp m062x

cat_freq

0 2
 O   0.60041700   1.88723200   0.10754800
 C  -0.27248900   0.94413900  -0.16756100
 C   1.57438300  -0.67668800  -0.29603200
 O   2.66318600  -0.39010600  -0.04536600
 C   0.20762100  -1.12773500   0.36892100
 C  -1.15703500  -1.44399900  -0.00810900
 C  -2.08810300  -0.45187600  -0.14413100
 C  -1.61664300   0.88052600  -0.04914600
 H   0.16671400   2.69416500   0.42806500
 H   0.68153800  -2.02804700   0.82312500
 H  -1.46411200  -2.48247800  -0.00082800
 H  -3.14596500  -0.67460700  -0.20502700
 H  -2.23940600   1.71775200   0.25555900

