# opt freq 3-21g m062x

Title Card Required

0 1
 C                 -0.00037100    0.00001500    0.00006600
 H                  0.45703600   -0.46392100   -0.87651000
 H                  0.29552000    1.04984200    0.05078900
 O                 -1.42401280   -0.09121826   -0.09903247
 H                 -1.97778930    0.27123673    0.59635085
 O                  0.44126729   -0.67639369    1.18003503
 H                 -1.82596786   -0.51492076   -0.86094344

