# Diene_crest_conf_1_DLPNO
%maxcore 16000
%pal nprocs 8 end
! DLPNO-CCSD(T) def2-tzvpp def2-tzvpp/C
%scf maxiter 500
end
% mdci
Density None
end
% elprop
Dipole False
end
* xyz 0 1
 C  -1.17646300  -0.28050800   0.00008900
 C  -0.73252100   0.98776300  -0.00003600
 C   0.73268500   0.98764100  -0.00003800
 C   1.17641700  -0.28070200   0.00003300
 C  -0.00010100  -1.21335500  -0.00003000
 H  -2.20602700  -0.60641900   0.00015300
 H  -1.34516700   1.87858300  -0.00006700
 H   1.34548000   1.87836000  -0.00009300
 H   2.20592600  -0.60678800   0.00003600
 H  -0.00016900  -1.87433700  -0.87566200
 H  -0.00014300  -1.87443500   0.87552200
*