# P1_crest_conf_1_DLPNO
%maxcore 16000
%pal nprocs 8 end
! DLPNO-CCSD(T) def2-tzvpp def2-tzvpp/C
%scf maxiter 500
end
% mdci
Density None
end
% elprop
Dipole False
end
* xyz 0 1
 C   1.05770200  -0.39285900   0.75538900
 C  -0.46280900  -0.31234800   1.12292200
 C  -1.01979000   1.02401100   0.66732800
 C  -1.01979100   1.02400700  -0.66733100
 C  -0.46281000  -0.31235300  -1.12292000
 C  -1.03426000  -1.22112400   0.00000300
 C   1.05770300  -0.39286200  -0.75538800
 C   1.74162900   0.71259600  -0.00000200
 H   1.66011600  -1.09037000   1.32226400
 H  -0.67601400  -0.59398700   2.15186900
 H  -1.26426200   1.85085600   1.32004100
 H  -1.26426500   1.85084900  -1.32004800
 H  -0.67601500  -0.59399600  -2.15186600
 H  -2.12403200  -1.28239500   0.00000400
 H  -0.60013700  -2.22319000   0.00000500
 H   1.66011200  -1.09037600  -1.32226400
 H   1.31431300   1.70582600  -0.00000400
 H   2.82474300   0.69237400  -0.00000200
*