# P3_crest_conf_2_DLPNO
%maxcore 16000
%pal nprocs 8 end
! DLPNO-CCSD(T) def2-tzvpp def2-tzvpp/C
%scf maxiter 500
end
% mdci
Density None
end
% elprop
Dipole False
end
* xyz 0 1
 C  -0.32390500   0.78543500  -0.69470100
 C   1.13070800   1.12875900  -0.22150800
 C   1.28133200   0.66709700   1.21672800
 C   1.28137300  -0.66713400   1.21669900
 C   1.13072900  -1.12874100  -0.22155200
 C   1.90730900   0.00003000  -0.94191300
 C  -0.32389600  -0.78541800  -0.69471600
 C  -1.52556200  -1.21140100   0.16644200
 C  -2.47318800  -0.00001500   0.12719900
 C  -1.52558300   1.21138700   0.16645600
 H  -0.44844400   1.16248400  -1.71227200
 H   1.44008100   2.15220900  -0.42788000
 H   1.29189600   1.31628100   2.08146200
 H   1.29196900  -1.31635500   2.08140500
 H   1.44011400  -2.15217800  -0.42796600
 H   2.97296800   0.00003500  -0.71038600
 H   1.76537500   0.00004800  -2.02543100
 H  -0.44844100  -1.16244600  -1.71229500
 H  -1.99788800  -2.12686800  -0.19463300
 H  -1.21308500  -1.39220400   1.19754900
 H  -3.03921700  -0.00001300  -0.80957000
 H  -3.20019100  -0.00002500   0.94225600
 H  -1.21311300   1.39218500   1.19756500
 H  -1.99792400   2.12685100  -0.19460900
*