# TS3_crest_conf_1_DLPNO
%maxcore 16000
%pal nprocs 8 end
! DLPNO-CCSD(T) def2-tzvpp def2-tzvpp/C
%scf maxiter 500
end
% mdci
Density None
end
% elprop
Dipole False
end
* xyz 0 1
 C  -1.38155600  -1.15077000  -0.08287000
 C  -1.21459600  -0.69799900   1.22956300
 C  -1.21510500   0.69914900   1.22884200
 C  -1.38261300   1.15040600  -0.08400700
 C  -1.97357700  -0.00081500  -0.85673100
 C   0.58027400   0.69898000  -0.97682300
 C   0.58031800  -0.69971700  -0.97613100
 C   1.68808200  -1.22375900  -0.08161000
 C   2.09635000   0.00049700   0.76516500
 C   1.68763800   1.22406100  -0.08242000
 H  -1.54913800  -2.18645600  -0.34682400
 H  -0.98693900  -1.32270800   2.08198300
 H  -0.98797400   1.32492800   2.08062000
 H  -1.55079100   2.18568800  -0.34915600
 H  -1.78554300  -0.00118900  -1.92825300
 H  -3.06293400  -0.00128400  -0.70383200
 H   0.29595200   1.26657400  -1.85273600
 H   0.29605800  -1.26812000  -1.85153400
 H   1.39458100  -2.07832200   0.53218100
 H   2.52560000  -1.55861700  -0.70548300
 H   3.15766700   0.00076400   1.01648600
 H   1.54348000   0.00071000   1.70415100
 H   2.52510900   1.55901300  -0.70630500
 H   1.39358500   2.07881800   0.53083900
*