%nprocshared=8
%mem=16GB
# wb97xd/lanl2dz scrf=(smd,solvent=acetonitrile)

CH4

0 1
 C  -0.00037100   0.00001500   0.00006600
 H   0.45703600  -0.46392100  -0.87651000
 H   0.33679500  -0.51638500   0.90090600
 H   0.29552000   1.04984200   0.05078900
 H  -1.08712500  -0.06962900  -0.07558200

