%MEM=96GB
%nprocshared=24
# wB97xd/gen SCRF=(SMD,Solvent=Acetonitrile) nmr=giao EmpiricalDispersion=GD3BJ

 comp_0_tBu conformer 1

0  1
C          -1.52330        -0.01050        -0.35420
C          -0.01280        -0.34400        -0.05610
C           0.90320        -0.23130        -1.29620
C           2.34850        -0.61950        -0.98490
C           2.91690         0.19970         0.16560
C           2.03520         0.09510         1.40240
C           0.58860         0.48630         1.10080
C          -2.07230        -0.94740        -1.45310
C          -1.73170         1.44390        -0.81690
C          -2.38230        -0.24030         0.90910
H           0.01930        -1.39680         0.26320
H           0.89240         0.79380        -1.68400
H           0.54860        -0.88410        -2.10000
H           2.96720        -0.47700        -1.87820
H           2.39320        -1.68630        -0.73320
H           3.92920        -0.14680         0.40220
H           3.00050         1.25040        -0.13790
H           2.43290         0.74160         2.19290
H           2.06250        -0.93200         1.78690
H           0.00800         0.34870         2.01840
H           0.55900         1.55430         0.85670
H          -1.89000        -1.99840        -1.20300
H          -3.15420        -0.82040        -1.57770
H          -1.61830        -0.74460        -2.42820
H          -1.40890         2.16310        -0.05790
H          -1.18790         1.65900        -1.74190
H          -2.79200         1.64140        -1.01520
H          -3.45110        -0.14330         0.68440
H          -2.22100        -1.24350         1.31900
H          -2.15930         0.48940         1.69400

C H 0
6-31g**
****

