%chk=C:\Users\leahw\github\pyCONFORT\tests\Input_files\pentane.chk
# hf/3-21g geom=connectivity

Title Card Required

-1 1
 C                 -2.26261128   -2.03264092    0.00000000
 H                 -1.90595686   -3.04145092    0.00000000
 H                 -1.90593844   -1.52824273   -0.87365150
 H                 -3.33261128   -2.03262774    0.00000000
 C                 -1.74926906   -1.30668465    1.25740497
 H                 -2.10432541   -0.29731156    1.25642745
 H                 -2.10753817   -1.80995308    2.13105486
 C                 -0.20927166   -1.30914100    1.25881364
 H                  0.14899682   -0.80619912    0.38497547
 H                  0.14578457   -2.31851369    1.26016738
 C                  0.30407082   -0.58271568    2.51594759
 H                 -0.05426599   -1.08560998    3.38978513
 H                  1.37406886   -0.58449397    2.51696778
 C                 -0.20684703    0.87006060    2.51393994
 H                 -1.19887067    0.89981495    2.91381964
 H                  0.43839614    1.47589343    3.11521179
 H                 -0.21505477    1.24386951    1.51139341

 1 2 1.0 3 1.0 4 1.0 5 1.0
 2
 3
 4
 5 6 1.0 7 1.0 8 1.0
 6
 7
 8 9 1.0 10 1.0 11 1.0
 9
 10
 11 12 1.0 13 1.0 14 1.0
 12
 13
 14 15 1.0 16 1.0 17 1.0
 15
 16
 17
