%chk=C:\Users\charged.chk
# hf/3-21g geom=connectivity

Title

1 2
 C                 -1.31982355   -0.25423777   -0.02060588
 H                 -0.96316913   -1.26304778   -0.02060588
 H                 -0.96315071    0.25016042   -0.89425738
 H                 -2.38982355   -0.25422459   -0.02060588
 C                 -0.80648133    0.47171850    1.23679909
 H                 -1.16313432    1.48052901    1.23679821
 H                 -1.16315561   -0.03267957    2.11045008
 C                  0.73351867    0.47169768    1.23680056
 H                  1.09019266    0.97592756    0.36305238
 H                  1.09017188   -0.53711273    1.23699498
 C                  1.24686016    1.19789551    2.49406634
 H                  0.89014973    0.69369050    3.36781400
 H                  0.89024275    2.20671858    2.49385027
 C                  2.78686016    1.19782038    2.49409918
 H                  3.14356973    1.70202473    1.62035078
 H                  3.14353249    1.70238678    3.36765375
 H                  3.14347779    0.18899740    2.49431581

 1 2 1.0 3 1.0 4 1.0 5 1.0
 2
 3
 4
 5 6 1.0 7 1.0 8 1.0
 6
 7
 8 9 1.0 10 1.0 11 1.0
 9
 10
 11 12 1.0 13 1.0 14 1.0
 12
 13
 14 15 1.0 16 1.0 17 1.0
 15
 16
 17

