%nprocshared=16
%mem=72GB
# B3LYP/def2tzvp opt=(calcfc,maxstep=5) freq 

P3_crest_conf_1

0 1
 C   0.26170500  -0.78316400  -0.84887800
 C  -1.10463800  -1.12528900  -0.15362200
 C  -1.03513900  -0.66720400   1.29182900
 C  -1.03515600   0.66723200   1.29181300
 C  -1.10464800   1.12527900  -0.15365000
 C  -1.98453900  -0.00001600  -0.74451400
 C   0.26170100   0.78314700  -0.84889300
 C   1.56806100   1.22431800  -0.15926900
 C   2.09271300   0.00000900   0.61631400
 C   1.56807200  -1.22431300  -0.15925500
 H   0.22006400  -1.17708500  -1.86595700
 H  -1.43411800  -2.15103800  -0.31270600
 H  -0.90575400  -1.31821300   2.14561600
 H  -0.90578400   1.31826300   2.14558400
 H  -1.43413800   2.15102100  -0.31276100
 H  -2.99929100  -0.00001500  -0.34508200
 H  -2.01655400  -0.00002800  -1.83659600
 H   0.22006400   1.17704900  -1.86597900
 H   2.29539500   1.51573900  -0.92157600
 H   1.42784000   2.09437200   0.48643200
 H   3.18183100   0.00001300   0.69517900
 H   1.69838400   0.00001300   1.63170400
 H   1.42786600  -2.09436300   0.48645500
 H   2.29540500  -1.51573100  -0.92156400

