%nprocshared=8
%mem=16GB
# wb97xd/genecp scrf=(smd,solvent=acetonitrile)

a-Ar-B

0 1
 C   0.07408600   1.21576500  -0.20137900
 C   1.45522200   1.16952000  -0.19950300
 C   2.13847600  -0.02948600   0.00464600
 C   1.38390500  -1.17907900   0.19517000
 C  -0.00432600  -1.13708300   0.18961500
 C  -0.68891800   0.06263200   0.00776400
 C  -2.17218100   0.10919500   0.02511100
 C  -2.90676300  -1.15076400  -0.34397500
 C  -2.83653300   1.21009400   0.37106400
 H   2.02002600   2.07900000  -0.37160000
 H   1.88695900  -2.12668400   0.34856400
 H  -2.53769500  -1.55805000  -1.28709800
 H  -2.76909300  -1.92192900   0.41721800
 H  -3.97440900  -0.96029100  -0.43501200
 H  -0.42527100   2.15651700  -0.39398000
 C   3.64121100  -0.06338800   0.00420300
 H   4.03995500   0.31108100  -0.94020700
 H   4.04516800   0.56488000   0.80014700
 H   4.01312000  -1.07636900   0.15122500
 H  -0.55541700  -2.05589300   0.34127300
 H  -3.91867400   1.23224700   0.36296900
 H  -2.32975300   2.11105200   0.69020200

H 0
6-31G*
****
C 0
def2svp
****

C 0
def2svp
****

