%nprocshared=8
%mem=16GB
# b3lyp/6-31G*

a-Int-I-T1

0 1
 C  -0.23950100  -1.64923600  -0.11346800
 C   0.95349100  -1.06073400  -0.79832300
 C   1.70561800  -0.06326600  -0.20740400
 C   1.34721100   0.43054300   1.03749600
 C   0.11640700  -0.03115100   1.75457800
 C  -0.93060800  -0.61024100   0.79732400
 C  -1.66753700   0.42324300  -0.01094200
 C  -1.14355500   1.79731800  -0.25944300
 C  -2.75167700  -0.06787800  -0.91185500
 H   1.26028400  -1.46350200  -1.75633600
 H   1.97239800   1.17807000   1.51217800
 H  -0.31352000   0.78806600   2.33648500
 H   0.38736300  -0.80445300   2.48498200
 H  -1.67771800  -1.15135600   1.39080700
 H  -0.63767500   2.22105500   0.60846700
 H  -0.41567300   1.81125600  -1.08411600
 H  -1.95714700   2.47040700  -0.53975900
 H  -2.37460700  -0.30112500  -1.91849400
 H  -3.53130400   0.68670600  -1.04061900
 H  -3.21665700  -0.97775000  -0.52570000
 H  -0.94853000  -2.03993500  -0.84567300
 C   2.90243000   0.51278500  -0.92149400
 H   3.26452800  -0.16451000  -1.69431000
 H   2.64548500   1.46059300  -1.39959100
 H   3.71942000   0.70596600  -0.22572700
 H   0.06967800  -2.50779000   0.49859900

