# a-Int-II
%maxcore 4000
%pal nprocs 8 end
! Extrapolate(2/3,cc) def2/J cc-pVTZ/C DLPNO-CCSD(T) NormalPNO TightSCF RIJCOSX GridX7
%cpcm
smd true
SMDsolvent "CH2Cl2"
end
%method
Grid 3
FinalGrid 5
end
%scf maxiter 500
end
% mdci
Density None
end
% output
printlevel mini
print[ P_SCFInfo ] 1
print[ P_SCFIterInfo ] 1
print[ P_OrbEn ] 0
print[ P_Cartesian ] 0
end
% elprop
Dipole False
end
* xyz 0 1
 C   0.17594000   1.42469000   0.35499600
 C  -1.06109300   1.33259100  -0.13299700
 C  -1.82524300   0.07737600  -0.07664500
 C  -1.36605500  -0.92712700   0.67083600
 C  -0.11015100  -0.80058800   1.48705500
 C   0.89406500   0.21696000   0.92471600
 C   1.79372200  -0.32738500  -0.15327100
 C   1.21732600  -1.17378400  -1.23688100
 C   3.05983100   0.40864100  -0.43856000
 H  -1.52918900   2.19113500  -0.60328500
 H  -1.92679300  -1.85385500   0.73605600
 H   0.38138900  -1.77168800   1.58626000
 H  -0.38983800  -0.49515700   2.50238500
 H   1.53507200   0.55360100   1.74431700
 H   0.64585300  -2.01631500  -0.84228300
 H   0.52241300  -0.59640700  -1.86439700
 H   2.00307400  -1.56172700  -1.88674600
 H   2.90201500   1.22726200  -1.15579000
 H   3.80739700  -0.25186400  -0.88355000
 H   3.48340100   0.84950400   0.46584900
 H   0.73454800   2.35030500   0.27304400
 C  -3.09468400   0.00182900  -0.87086300
 H  -3.79124800   0.78495900  -0.56103400
 H  -2.89624000   0.15425700  -1.93480500
 H  -3.58380300  -0.96322500  -0.74634400
*