# a-TS-I-B-T1
%maxcore 4000
%pal nprocs 8 end
! Extrapolate(2/3,cc) def2/J cc-pVTZ/C DLPNO-CCSD(T) NormalPNO TightSCF RIJCOSX GridX7
%cpcm
smd true
SMDsolvent "CH2Cl2"
end
%method
Grid 3
FinalGrid 5
end
%scf maxiter 500
end
% mdci
Density None
end
% output
printlevel mini
print[ P_SCFInfo ] 1
print[ P_SCFIterInfo ] 1
print[ P_OrbEn ] 0
print[ P_Cartesian ] 0
end
% elprop
Dipole False
end
* xyz 0 1
 C   0.07721000   1.30179400   0.15588600
 C   1.56216800   1.20388500   0.01260300
 C   2.23740000   0.00484300  -0.01866900
 C   1.55133400  -1.19448400   0.12171400
 C   0.07263000  -1.25632500   0.32063100
 C  -0.63296500   0.00207500  -0.11010600
 C  -2.12420400   0.01345200  -0.25524500
 C  -2.90959100   1.24690900   0.08793600
 C  -2.86876600  -1.28724900  -0.15089300
 H   2.11968700   2.13038100  -0.05650900
 H   2.10533200  -2.12580500   0.12920700
 H  -0.14108000  -1.44602400   1.38936700
 H  -0.32675400  -2.12910100  -0.19939100
 H  -1.26712900   0.02328000  -1.24500800
 H  -3.10001400   1.29383700   1.16966600
 H  -2.40247200   2.16960500  -0.18757400
 H  -3.87981200   1.23800500  -0.41069800
 H  -3.89151300  -1.16614400  -0.50990400
 H  -2.92517100  -1.63684000   0.88877500
 H  -2.41109000  -2.08510100  -0.73544100
 H  -0.16739900   1.66857100   1.16914800
 C   3.73581600  -0.02139000  -0.19214700
 H   4.00963300  -0.52636900  -1.11994400
 H   4.14617300   0.98710600  -0.22262500
 H   4.21424600  -0.55886400   0.62794700
 H  -0.28884100   2.08240900  -0.51727000
*