%nprocshared=8
%mem=16GB
# pop=(nbo6read,savenbos) wb97xd/gen scrf=(smd,solvent=dichloromethane)

b-Int-II

0 1
 C   0.02244500   1.36223200   0.16575100
 C  -1.23039700   1.30999200  -0.28802000
 C  -2.05382800   0.10168500  -0.21466800
 C  -1.31625000  -1.16085700   0.14205100
 C  -0.25101600  -0.90597200   1.21063500
 C   0.73524200   0.21006500   0.83972800
 C   1.92161100  -0.21529700   0.01057700
 C   1.77853900  -1.24346500  -1.05979800
 C   3.05223100   0.75157200  -0.10600600
 H  -1.68249100   2.19178700  -0.72998300
 H  -2.01960300  -1.92280400   0.48055700
 H   0.29829100  -1.82432600   1.42775400
 H  -0.76007100  -0.61424600   2.13247600
 H   1.14757800   0.61045100   1.77439000
 H   1.29401900  -2.15300600  -0.69928900
 H   1.17687200  -0.87187000  -1.90261900
 H   2.75511700  -1.51944600  -1.46028700
 H   2.90576000   1.45274600  -0.94057800
 H   3.99538000   0.23485300  -0.29804700
 H   3.16655100   1.34954400   0.80041800
 H   0.58754100   2.28318400   0.06381400
 C  -3.35850100   0.12981000  -0.48181000
 H  -3.85169700   1.04973100  -0.77156700
 H  -3.96759600  -0.76335200  -0.41968000
 H  -0.84610800  -1.54183300  -0.76799700

H 0
6-31G*
****
C 0
def2svp
****

$nbo bndidx $end

