%nprocshared=8
%mem=16GB
# wb97xd/genecp scrf=(smd,solvent=acetonitrile)

b-Int-III

0 1
 C  -0.11078500   0.95371700   1.14782900
 C  -1.35582200   1.02427300   0.67617300
 C  -1.94873900  -0.00532400  -0.18210800
 C  -1.03184500  -1.12287900  -0.61484400
 C  -0.00648400  -1.44300200   0.46900300
 C   0.81142900  -0.20431300   0.87510800
 C   1.89675500   0.13720300  -0.14472300
 C   3.06533500  -0.49237100  -0.10163400
 C   1.60552700   1.18844600  -1.17782100
 H  -1.98194300   1.87461300   0.92483500
 H  -1.61935700  -2.00714800  -0.86490400
 H   0.66962200  -2.23146200   0.13715900
 H  -0.53336200  -1.80616000   1.35549200
 H   3.28092600  -1.22900400   0.66410900
 H   3.84280900  -0.29579300  -0.82935200
 H   0.66252600   1.00130300  -1.69421800
 H   2.40709800   1.24209800  -1.91293700
 H   1.50060700   2.16783600  -0.70508800
 H   0.27581900   1.76455000   1.75652100
 C  -3.22479600   0.06452000  -0.55903100
 H   1.32896800  -0.44861600   1.80654200
 H  -0.50930500  -0.82573000  -1.52878500
 H  -3.85527100   0.89083400  -0.25407300
 H  -3.67258400  -0.69895200  -1.18300600

H 0
6-31G*
****
C 0
def2svp
****

C 0
def2svp
****

