%nprocshared=8
%mem=16GB
# m062x/def2qzvpp emp=gd3 scrf=(smd,solvent=acetonitrile)

b-Int-IV-B

0 1
 C   0.15551500   1.24145100   0.18943100
 C   1.49125900   1.25852500   0.13121700
 C   2.28269200   0.04183900  -0.02262000
 C   1.56390500  -1.25117400   0.27310200
 C   0.08434100  -1.19313500   0.06960200
 C  -0.63166100   0.00109300   0.07499200
 C  -2.02132900   0.02205400  -0.03936900
 C  -2.78861300  -1.26289100  -0.15000000
 C  -2.85676600   1.26119300  -0.08549500
 H   2.02398700   2.20215900   0.16079600
 H   2.00214600  -2.06761000  -0.30472900
 H  -2.50647600  -1.82234900  -1.04722600
 H  -2.60292300  -1.91880400   0.70497000
 H  -3.86000600  -1.07316700  -0.19988200
 H  -3.57240600   1.26724400   0.74351800
 H  -3.45471600   1.27412300  -1.00274100
 H  -2.29088600   2.18637300  -0.04735300
 H  -0.36659100   2.18132500   0.29423000
 C   3.56837400   0.08225100  -0.37165700
 H  -0.43619600  -2.13724400  -0.00604700
 H   1.75545300  -1.50321800   1.32781500
 H   4.07501300   1.02636200  -0.52876400
 H   4.14730000  -0.82242800  -0.50980000

