%nprocshared=8
%mem=16GB
# pop=(nbo6read,savenbos) wb97xd/gen scrf=(smd,solvent=dichloromethane)

b-Int-III-B

0 1
 C   0.13977800   1.25354600  -0.13515100
 C   1.48078000   1.26643000  -0.10691100
 C   2.27543800   0.05629400   0.07742700
 C   1.48370200  -1.16508200   0.45617400
 C   0.16431800  -1.23619500  -0.31667300
 C  -0.65274500   0.02190600  -0.11904300
 C  -1.99197100   0.02585300  -0.00141600
 C  -2.83995900  -1.21209900  -0.10679300
 C  -2.81007900   1.26350000   0.24742600
 H   2.01415200   2.20487300  -0.20930600
 H   2.07492000  -2.06693900   0.29490300
 H  -0.38487900  -2.11934300   0.00078600
 H   0.38784200  -1.35240600  -1.38301400
 H  -2.33277900  -2.05076100  -0.57506300
 H  -3.18769000  -1.52704600   0.88202300
 H  -3.73480300  -0.99246200  -0.69437600
 H  -3.55694900   1.05521100   1.01788400
 H  -3.36348900   1.54530000  -0.65335900
 H  -2.22734900   2.11815300   0.57720200
 H  -0.37880900   2.19668900  -0.24261900
 C   3.60229400   0.05601100  -0.05042400
 H   1.25576200  -1.10756300   1.52581500
 H   4.14160200   0.96252800  -0.29668000
 H   4.18313200  -0.84721000   0.08811700

H 0
6-31G*
****
C 0
def2svp
****

$nbo bndidx $end

