%nprocshared=8
%mem=16GB
# m062x/def2qzvpp emp=gd3 scrf=(smd,solvent=acetonitrile)

b-pinene

0 1
 C   2.20081500  -1.55955100  -0.27736600
 C   1.37809800  -0.51877900  -0.27507900
 C   1.72536400   0.80739200   0.37616600
 C   0.48574000   1.64187800   0.77813300
 C  -0.74504400   1.22047900  -0.02300600
 C  -1.05918400  -0.28798100   0.19663600
 C  -0.83287000  -0.89344800   1.57172900
 C  -2.45883700  -0.65684300  -0.28198300
 C   0.01981500  -0.54663800  -0.90938700
 C  -0.31486800   0.86220900  -1.46471200
 H   1.93959800  -2.48005000  -0.78499100
 H   3.16189700  -1.52248300   0.22198900
 H   2.38635400   0.64545000   1.22828900
 H   2.30533100   1.37980200  -0.35208600
 H   0.69070900   2.69938100   0.60093900
 H   0.27846300   1.53931300   1.84486200
 H  -1.57336800   1.91849300   0.11257100
 H  -0.96885100  -1.97680800   1.52976500
 H  -1.55748600  -0.49305700   2.28561200
 H   0.16734300  -0.70932400   1.96109800
 H  -3.20664400  -0.27964400   0.41974800
 H  -2.56737700  -1.74255200  -0.33391100
 H  -2.69102600  -0.25028000  -1.26551500
 H  -0.11870300  -1.41908500  -1.54950200
 H   0.50445900   1.43354900  -1.90082600
 H  -1.14488200   0.84497600  -2.16483200

