%nprocshared=8
%mem=16GB
# b3lyp/6-31G*

H2

0 1
 H   0.00000000   0.00000000   0.37011200
 H   0.00000000   0.00000000  -0.37011200

