%nprocshared=8
%mem=16GB
# wb97xd/def2qzvpp scrf=(smd,solvent=acetonitrile)

H2

-1 2
 H   0.00000000   0.00000000   0.37011200
 H   0.00000000   0.00000000  -0.37011200

