%nprocshared=8
%mem=16GB
# m062x/def2qzvpp emp=gd3 scrf=(smd,solvent=acetonitrile)

H

0 1
 H   0.00000000   0.00000000   0.00000000

