%nprocshared=8
%mem=16GB
# wb97xd/genecp scrf=(smd,solvent=acetonitrile)

H

0 1
 H   0.00000000   0.00000000   0.00000000

H 0
6-31G*
****

