%nprocshared=8
%mem=16GB
# wb97xd/def2qzvpp scrf=(smd,solvent=acetonitrile)

H

0 3
 H   0.00000000   0.00000000   0.00000000

