# Propylene-rad
%maxcore 4000
%pal nprocs 8 end
! Extrapolate(2/3,cc) def2/J cc-pVTZ/C DLPNO-CCSD(T) NormalPNO TightSCF RIJCOSX GridX7
%cpcm
smd true
SMDsolvent "CH2Cl2"
end
%method
Grid 3
FinalGrid 5
end
%scf maxiter 500
end
% mdci
Density None
end
% output
printlevel mini
print[ P_SCFInfo ] 1
print[ P_SCFIterInfo ] 1
print[ P_OrbEn ] 0
print[ P_Cartesian ] 0
end
% elprop
Dipole False
end
* xyz 0 1
 C   1.26287100   0.07965100  -0.00010900
 C  -0.12652400  -0.39522100   0.00015400
 C  -1.33264800   0.10290300   0.00002600
 H   1.79805500  -0.27878200   0.88047800
 H   1.79788900  -0.27689700  -0.88149200
 H   1.29608500   1.17551300   0.00116200
 H  -1.49772100   1.18138500   0.00006600
 H  -2.21650500  -0.52521700  -0.00064200
*