%nprocshared=8
%mem=16GB
# m062x/def2qzvpp emp=gd3 scrf=(smd,solvent=acetonitrile)

Propylene-rad

0 1
 C   1.26287100   0.07965100  -0.00010900
 C  -0.12652400  -0.39522100   0.00015400
 C  -1.33264800   0.10290300   0.00002600
 H   1.79805500  -0.27878200   0.88047800
 H   1.79788900  -0.27689700  -0.88149200
 H   1.29608500   1.17551300   0.00116200
 H  -1.49772100   1.18138500   0.00006600
 H  -2.21650500  -0.52521700  -0.00064200

