%nprocshared=12
%mem=24GB
# B3LYP/6-311+G(2d,p) scrf=(solvent=chloroform,smd) nmr=giao

Strychnine_rdkit_conf_1_SP

0 1
 C   0.38892900  -1.84254700   1.73556900
 C  -1.07690600  -2.28396100   1.71865800
 N  -1.35613400  -2.61923300   0.30808700
 C  -2.71370900  -2.25788900  -0.13505100
 C  -2.82125700  -0.77841900  -0.44532500
 C  -3.73217400   0.02742900   0.11721100
 C  -3.73467000   1.52457900  -0.07470100
 O  -2.55697400   2.14396800   0.45921800
 C  -1.42271200   2.19814100  -0.40847000
 C  -0.37909100   3.05932800   0.35476200
 C   1.06510900   2.56404800   0.33608100
 O   2.01659400   3.33070800   0.21471500
 N   1.20841800   1.20053600   0.49190700
 C   0.00454300   0.33080800   0.42444200
 C  -0.81531300   0.82828200  -0.78169700
 C  -1.73602300  -0.25301300  -1.38619100
 C  -0.81637400  -1.41460900  -1.80943200
 C  -0.25891900  -2.08287300  -0.55012000
 C   0.56526000  -1.12989900   0.36890900
 C   2.02077800  -0.90554800   0.01620800
 C   3.00050000  -1.83176800  -0.33022900
 C   4.31692400  -1.39625200  -0.53398900
 C   4.64023900  -0.04497900  -0.37688500
 C   3.67015400   0.90050500  -0.02228600
 C   2.36099600   0.44888200   0.16388600
 H   0.63398900  -1.19518200   2.58322300
 H   1.05591000  -2.71076600   1.77422100
 H  -1.72580300  -1.46526100   2.07044100
 H  -1.25910900  -3.14836900   2.36817400
 H  -3.41988600  -2.54458200   0.64957200
 H  -2.97025300  -2.85876600  -1.01713800
 H  -4.47677400  -0.39179000   0.79238700
 H  -4.56957200   1.97861600   0.46520400
 H  -3.84112700   1.79491400  -1.13817600
 H  -1.72324900   2.70863300  -1.33723500
 H  -0.36331300   4.08947900  -0.00378100
 H  -0.70777400   3.08912300   1.40095500
 H  -0.59185300   0.46602300   1.33264800
 H  -0.08798100   1.05540100  -1.57541600
 H  -2.21954100   0.17645500  -2.27615700
 H  -1.35557300  -2.15000400  -2.41540100
 H   0.01000900  -1.04599900  -2.42706300
 H   0.39790400  -2.91296000  -0.84375500
 H   2.75267100  -2.88426700  -0.43967700
 H   5.08674900  -2.11125100  -0.80814700
 H   5.66363300   0.28450200  -0.53166300
 H   3.91029100   1.94804300   0.09727000

