%mem=60GB
%nprocshared=36
# wb97xd/def2svp freq=noraman opt=(maxcycles=100)

 pentane conformer 14

0 1
C          -1.93730         0.43000         0.00240
C          -1.03050        -0.75670         0.28850
C           0.14100        -0.88080        -0.68870
C           1.10200         0.30990        -0.72470
C           1.77430         0.58860         0.61050
H          -2.30000         0.40770        -1.03000
H          -2.80680         0.40700         0.66730
H          -1.41960         1.37930         0.16800
H          -1.62840        -1.67410         0.22650
H          -0.66370        -0.69730         1.31900
H          -0.25530        -1.03670        -1.69990
H           0.70710        -1.78640        -0.43750
H           1.88010         0.10100        -1.46890
H           0.58150         1.21070        -1.06780
H           2.28330        -0.30370         0.98820
H           2.52060         1.38150         0.49680
H           1.05160         0.92010         1.36180

