%mem=60GB
%nprocshared=36
# wb97xd/def2svp freq=noraman opt=(maxcycles=100)

 pentane conformer 3

0 1
C           2.18140        -0.35500        -0.13230
C           1.29140         0.80140         0.29610
C          -0.12930         0.71980        -0.26620
C          -0.92530        -0.47120         0.26920
C          -2.36040        -0.45040        -0.23480
H           1.83590        -1.30430         0.28720
H           3.20510        -0.19100         0.21960
H           2.20900        -0.44700        -1.22270
H           1.25750         0.84960         1.39070
H           1.74750         1.73730        -0.04810
H          -0.65410         1.64760        -0.00640
H          -0.08940         0.67630        -1.36150
H          -0.45860        -1.41190        -0.04170
H          -0.92920        -0.45460         1.36510
H          -2.39270        -0.49420        -1.32810
H          -2.91180        -1.31120         0.15640
H          -2.87710         0.45890         0.08860

