%mem=60GB
%nprocshared=36
# wb97xd/def2svp opt=(maxcycles=100) freq=noraman

 pentane conformer 86

0  1
C           1.57310         0.52560        -0.84940
C           1.32880        -0.71660        -0.01070
C           0.10470        -0.63370         0.90570
C          -1.23700        -0.52170         0.17610
C          -1.72020         0.91300         0.02030
H           0.80490         0.64250        -1.61890
H           1.59100         1.42610        -0.22790
H           2.53790         0.44840        -1.36120
H           2.21250        -0.89090         0.61520
H           1.23830        -1.58680        -0.67150
H           0.22600         0.18670         1.62310
H           0.08740        -1.55820         1.49760
H          -1.19080        -1.01190        -0.80280
H          -1.99320        -1.06020         0.76080
H          -2.69900         0.92740        -0.47000
H          -1.03650         1.51400        -0.58310
H          -1.82800         1.39630         0.99680

