%mem=60GB
%nprocshared=36
# wb97xd/def2svp opt=(maxcycles=100) freq=noraman

 pentane conformer 188

0  1
C          -2.49590         0.00750         0.34300
C          -1.29470        -0.02090        -0.58850
C           0.01960         0.01080         0.19110
C           1.22440        -0.01780        -0.74900
C           2.53410         0.01360         0.02260
H          -3.42480        -0.01590        -0.23540
H          -2.49210        -0.85700         1.01460
H          -2.49820         0.91660         0.95280
H          -1.33980        -0.92560        -1.20600
H          -1.34590         0.83830        -1.26740
H           0.05800         0.91540         0.81030
H           0.06400        -0.84820         0.87170
H           1.19310        -0.92250        -1.36730
H           1.18700         0.84140        -1.42880
H           2.61150         0.92280         0.62730
H           2.61760        -0.85080         0.68910
H           3.38210        -0.00760        -0.66900

