%mem=60GB
%nprocshared=36
# wb97xd/def2svp opt=(maxcycles=100) freq=noraman

 pentane conformer 92

0  1
C           2.34850         0.54350         0.06180
C           0.86190         0.60130        -0.25550
C           0.18420        -0.74500         0.00300
C          -1.29150        -0.76810        -0.40050
C          -2.16380         0.15750         0.43340
H           2.51550         0.28430         1.11210
H           2.85440        -0.20100        -0.56110
H           2.81410         1.51610        -0.12640
H           0.40280         1.38300         0.35900
H           0.72960         0.89000        -1.30450
H           0.27980        -1.01030         1.06300
H           0.70680        -1.52440        -0.56550
H          -1.66570        -1.79280        -0.28880
H          -1.39290        -0.50800        -1.46060
H          -3.21650         0.02530         0.16350
H          -1.90910         1.20800         0.26590
H          -2.05840        -0.05910         1.50120

