%mem=60GB
%nprocshared=36
# wb97xd/gen freq=noraman opt=(maxcycles=100) scrf=(SMD,solvent=Chloroform)

 Au_linear conformer 238

-1 1
C          -2.17210         0.99360        -0.66300
C          -0.97100         1.20530         0.25100
S           0.59180         1.12140        -0.69170
Au          0.72820        -1.11870        -0.72350
S           0.59010        -3.28160        -0.69130
C          -1.20910        -3.30260        -0.41570
H          -3.10860         1.10560        -0.07730
H          -2.16880         1.74700        -1.47890
H          -2.15170        -0.02430        -1.10470
H          -0.97890         0.46100         1.07580
H          -1.04430         2.21530         0.70620
H          -1.73500        -2.81090        -1.26110
H          -1.46070        -2.78960         0.53660
H          -1.55010        -4.35610        -0.35130

 C S H 0
def2svp
****
Au 0
LANL2DZ
****

