%mem=60GB
%nprocshared=36
# wb97xd/gen freq=noraman opt=(maxcycles=100) scrf=(SMD,solvent=Chloroform)

 Au_linear conformer 14 720

-1 1
C           8.93490        42.11340        22.33160
C          10.09960        41.48880        21.57870
S           9.47860        40.45160        20.21780
Au         11.72710        39.80940        19.48930
S          13.98920        39.18650        18.78620
C          14.78040        40.17350        20.09000
H           8.33430        42.74970        21.64740
H           8.28610        41.31970        22.75930
H           9.32150        42.74410        23.15960
H          10.69680        40.86460        22.27710
H          10.74500        42.29330        21.16630
H          14.50600        41.24250        19.97360
H          14.45770        39.80970        21.08760
H          15.88180        40.07140        20.00640

 C S H 0
def2svp
****
Au 0
LANL2DZ
****

