%mem=60GB
%nprocshared=36
# wb97xd/def2svp  freq=noraman empiricaldispersion=GD3BJ opt=(calcfc,maxcycles=100) scrf=(SMD,solvent=Chloroform)

 CH4

0 1
 C  -0.68357600   0.02038200   0.00495700
 H  -1.08104900  -0.88264200  -0.46583200
 H  -1.10499100   0.09588900   1.00718400
 H  -1.04779100   0.87481300  -0.58663200
 O   0.77009900  -0.12334800   0.00100300
 H   1.17449900   0.77642900   0.00751600

